p cnf 324 1
324 0
w 1 0.319105
w 2 1 0
w 2 -1 1
w 3 2 0
w 3 -2 1
w 4 3 1
w 4 -3 0
w 5 4 0.272927
w 5 -4 0.424798
w 6 5 0.408145
w 6 -5 0.392433
w 7 6 1
w 7 -6 0
w 8 7 0
w 8 -7 1
w 9 8 1
w 9 -8 0
w 10 9 1
w 10 -9 0
w 11 10 1
w 11 -10 0
w 12 11 1
w 12 -11 0
w 13 12 0
w 13 -12 1
w 14 13 1
w 14 -13 0
w 15 14 1
w 15 -14 0
w 16 15 1
w 16 -15 0
w 17 16 0.60075
w 17 -16 0.607901
w 18 17 0.893985
w 18 -17 0.470497
w 19 1 1
w 19 -1 0
w 20 19 2 1
w 20 19 -2 0
w 20 -19 2 0
w 20 -19 -2 1
w 21 20 3 0
w 21 20 -3 0
w 21 -20 3 1
w 21 -20 -3 0
w 22 21 4 0
w 22 21 -4 0
w 22 -21 4 1
w 22 -21 -4 0
w 23 22 5 1
w 23 22 -5 0
w 23 -22 5 1
w 23 -22 -5 0
w 24 23 6 1
w 24 23 -6 1
w 24 -23 6 0
w 24 -23 -6 0
w 25 24 7 0
w 25 24 -7 0
w 25 -24 7 0
w 25 -24 -7 1
w 26 25 8 1
w 26 25 -8 0
w 26 -25 8 0
w 26 -25 -8 1
w 27 26 9 0
w 27 26 -9 0
w 27 -26 9 1
w 27 -26 -9 1
w 28 27 10 0
w 28 27 -10 0
w 28 -27 10 0
w 28 -27 -10 1
w 29 28 11 1
w 29 28 -11 0
w 29 -28 11 0
w 29 -28 -11 0
w 30 29 12 1
w 30 29 -12 1
w 30 -29 12 0
w 30 -29 -12 1
w 31 30 13 0.959103
w 31 30 -13 0.0823965
w 31 -30 13 0.957089
w 31 -30 -13 0.528427
w 32 31 14 0
w 32 31 -14 0
w 32 -31 14 1
w 32 -31 -14 0
w 33 32 15 0
w 33 32 -15 1
w 33 -32 15 0
w 33 -32 -15 0
w 34 33 16 0
w 34 33 -16 1
w 34 -33 16 1
w 34 -33 -16 0
w 35 34 17 0
w 35 34 -17 0
w 35 -34 17 1
w 35 -34 -17 0
w 36 35 18 0
w 36 35 -18 0
w 36 -35 18 1
w 36 -35 -18 1
w 37 19 0
w 37 -19 1
w 38 37 20 1
w 38 37 -20 0
w 38 -37 20 1
w 38 -37 -20 1
w 39 38 21 0
w 39 38 -21 1
w 39 -38 21 0
w 39 -38 -21 1
w 40 39 22 0.403395
w 40 39 -22 0.0494035
w 40 -39 22 0.190801
w 40 -39 -22 0.710689
w 41 40 23 0
w 41 40 -23 0
w 41 -40 23 1
w 41 -40 -23 0
w 42 41 24 0
w 42 41 -24 1
w 42 -41 24 0
w 42 -41 -24 1
w 43 42 25 0
w 43 42 -25 0
w 43 -42 25 1
w 43 -42 -25 0
w 44 43 26 0
w 44 43 -26 1
w 44 -43 26 0
w 44 -43 -26 0
w 45 44 27 1
w 45 44 -27 0
w 45 -44 27 0
w 45 -44 -27 1
w 46 45 28 0
w 46 45 -28 0
w 46 -45 28 0
w 46 -45 -28 1
w 47 46 29 0.860228
w 47 46 -29 0.461111
w 47 -46 29 0.661242
w 47 -46 -29 0.371177
w 48 47 30 0
w 48 47 -30 1
w 48 -47 30 1
w 48 -47 -30 1
w 49 48 31 0
w 49 48 -31 0
w 49 -48 31 0
w 49 -48 -31 1
w 50 49 32 1
w 50 49 -32 1
w 50 -49 32 1
w 50 -49 -32 0
w 51 50 33 1
w 51 50 -33 1
w 51 -50 33 0
w 51 -50 -33 1
w 52 51 34 0.229077
w 52 51 -34 0.730746
w 52 -51 34 0.384476
w 52 -51 -34 0.108868
w 53 52 35 1
w 53 52 -35 0
w 53 -52 35 1
w 53 -52 -35 1
w 54 53 36 0
w 54 53 -36 0
w 54 -53 36 0
w 54 -53 -36 1
w 55 37 0.699529
w 55 -37 0.994746
w 56 55 38 0
w 56 55 -38 0
w 56 -55 38 1
w 56 -55 -38 0
w 57 56 39 0
w 57 56 -39 0
w 57 -56 39 1
w 57 -56 -39 1
w 58 57 40 0.195629
w 58 57 -40 0.0507797
w 58 -57 40 0.225147
w 58 -57 -40 0.926375
w 59 58 41 1
w 59 58 -41 1
w 59 -58 41 0
w 59 -58 -41 1
w 60 59 42 1
w 60 59 -42 0
w 60 -59 42 0
w 60 -59 -42 1
w 61 60 43 1
w 61 60 -43 0
w 61 -60 43 1
w 61 -60 -43 1
w 62 61 44 0.420958
w 62 61 -44 0.864522
w 62 -61 44 0.109613
w 62 -61 -44 0.0907217
w 63 62 45 1
w 63 62 -45 0
w 63 -62 45 0
w 63 -62 -45 0
w 64 63 46 0
w 64 63 -46 0
w 64 -63 46 0
w 64 -63 -46 1
w 65 64 47 0.876208
w 65 64 -47 0.997676
w 65 -64 47 0.40055
w 65 -64 -47 0.157051
w 66 65 48 1
w 66 65 -48 0
w 66 -65 48 0
w 66 -65 -48 1
w 67 66 49 0
w 67 66 -49 1
w 67 -66 49 1
w 67 -66 -49 1
w 68 67 50 1
w 68 67 -50 1
w 68 -67 50 0
w 68 -67 -50 1
w 69 68 51 0.513628
w 69 68 -51 0.671123
w 69 -68 51 0.240101
w 69 -68 -51 0.274826
w 70 69 52 1
w 70 69 -52 1
w 70 -69 52 0
w 70 -69 -52 0
w 71 70 53 1
w 71 70 -53 1
w 71 -70 53 0
w 71 -70 -53 0
w 72 71 54 1
w 72 71 -54 0
w 72 -71 54 1
w 72 -71 -54 0
w 73 55 1
w 73 -55 0
w 74 73 56 0
w 74 73 -56 0
w 74 -73 56 1
w 74 -73 -56 0
w 75 74 57 0.412658
w 75 74 -57 0.793646
w 75 -74 57 0.275191
w 75 -74 -57 0.210314
w 76 75 58 0
w 76 75 -58 1
w 76 -75 58 1
w 76 -75 -58 1
w 77 76 59 0.50986
w 77 76 -59 0.471305
w 77 -76 59 0.928604
w 77 -76 -59 0.888318
w 78 77 60 0.444007
w 78 77 -60 0.423826
w 78 -77 60 0.253009
w 78 -77 -60 0.839459
w 79 78 61 0
w 79 78 -61 1
w 79 -78 61 1
w 79 -78 -61 1
w 80 79 62 0.848572
w 80 79 -62 0.192147
w 80 -79 62 0.106221
w 80 -79 -62 0.799413
w 81 80 63 1
w 81 80 -63 0
w 81 -80 63 0
w 81 -80 -63 1
w 82 81 64 0.35606
w 82 81 -64 0.179608
w 82 -81 64 0.482432
w 82 -81 -64 0.363671
w 83 82 65 1
w 83 82 -65 0
w 83 -82 65 1
w 83 -82 -65 1
w 84 83 66 0.5912
w 84 83 -66 0.668794
w 84 -83 66 0.185675
w 84 -83 -66 0.844208
w 85 84 67 0
w 85 84 -67 1
w 85 -84 67 0
w 85 -84 -67 1
w 86 85 68 0.783432
w 86 85 -68 0.0564421
w 86 -85 68 0.140719
w 86 -85 -68 0.889652
w 87 86 69 0.275273
w 87 86 -69 0.408531
w 87 -86 69 0.448914
w 87 -86 -69 0.685019
w 88 87 70 1
w 88 87 -70 1
w 88 -87 70 0
w 88 -87 -70 0
w 89 88 71 1
w 89 88 -71 0
w 89 -88 71 0
w 89 -88 -71 0
w 90 89 72 0
w 90 89 -72 0
w 90 -89 72 1
w 90 -89 -72 0
w 91 73 0.5297
w 91 -73 0.802751
w 92 91 74 0
w 92 91 -74 1
w 92 -91 74 0
w 92 -91 -74 1
w 93 92 75 0
w 93 92 -75 1
w 93 -92 75 0
w 93 -92 -75 0
w 94 93 76 0
w 94 93 -76 1
w 94 -93 76 1
w 94 -93 -76 0
w 95 94 77 0
w 95 94 -77 0
w 95 -94 77 0
w 95 -94 -77 1
w 96 95 78 0
w 96 95 -78 1
w 96 -95 78 1
w 96 -95 -78 0
w 97 96 79 0.0547212
w 97 96 -79 0.337718
w 97 -96 79 0.735247
w 97 -96 -79 0.584421
w 98 97 80 1
w 98 97 -80 0
w 98 -97 80 1
w 98 -97 -80 1
w 99 98 81 0
w 99 98 -81 1
w 99 -98 81 0
w 99 -98 -81 1
w 100 99 82 1
w 100 99 -82 0
w 100 -99 82 1
w 100 -99 -82 1
w 101 100 83 1
w 101 100 -83 0
w 101 -100 83 0
w 101 -100 -83 0
w 102 101 84 1
w 102 101 -84 1
w 102 -101 84 0
w 102 -101 -84 1
w 103 102 85 1
w 103 102 -85 0
w 103 -102 85 1
w 103 -102 -85 0
w 104 103 86 0
w 104 103 -86 0
w 104 -103 86 0
w 104 -103 -86 1
w 105 104 87 0.845727
w 105 104 -87 0.102559
w 105 -104 87 0.0321733
w 105 -104 -87 0.175767
w 106 105 88 1
w 106 105 -88 1
w 106 -105 88 0
w 106 -105 -88 0
w 107 106 89 0.36946
w 107 106 -89 0.565813
w 107 -106 89 0.77992
w 107 -106 -89 0.708479
w 108 107 90 0
w 108 107 -90 1
w 108 -107 90 1
w 108 -107 -90 0
w 109 91 0
w 109 -91 1
w 110 109 92 1
w 110 109 -92 0
w 110 -109 92 0
w 110 -109 -92 1
w 111 110 93 0
w 111 110 -93 1
w 111 -110 93 0
w 111 -110 -93 1
w 112 111 94 0.460858
w 112 111 -94 0.254799
w 112 -111 94 0.0372529
w 112 -111 -94 0.999008
w 113 112 95 0.890735
w 113 112 -95 0.520348
w 113 -112 95 0.578944
w 113 -112 -95 0.810685
w 114 113 96 0.144757
w 114 113 -96 0.590604
w 114 -113 96 0.598287
w 114 -113 -96 0.177941
w 115 114 97 1
w 115 114 -97 0
w 115 -114 97 0
w 115 -114 -97 0
w 116 115 98 0
w 116 115 -98 1
w 116 -115 98 1
w 116 -115 -98 1
w 117 116 99 0
w 117 116 -99 0
w 117 -116 99 0
w 117 -116 -99 1
w 118 117 100 1
w 118 117 -100 0
w 118 -117 100 1
w 118 -117 -100 0
w 119 118 101 1
w 119 118 -101 0
w 119 -118 101 0
w 119 -118 -101 1
w 120 119 102 0
w 120 119 -102 1
w 120 -119 102 0
w 120 -119 -102 0
w 121 120 103 1
w 121 120 -103 1
w 121 -120 103 0
w 121 -120 -103 1
w 122 121 104 1
w 122 121 -104 0
w 122 -121 104 0
w 122 -121 -104 0
w 123 122 105 0
w 123 122 -105 1
w 123 -122 105 1
w 123 -122 -105 0
w 124 123 106 0.0177931
w 124 123 -106 0.260233
w 124 -123 106 0.233146
w 124 -123 -106 0.147373
w 125 124 107 1
w 125 124 -107 0
w 125 -124 107 0
w 125 -124 -107 0
w 126 125 108 0.0402798
w 126 125 -108 0.475057
w 126 -125 108 0.31153
w 126 -125 -108 0.942233
w 127 109 1
w 127 -109 0
w 128 127 110 0.452964
w 128 127 -110 0.262834
w 128 -127 110 0.0557176
w 128 -127 -110 0.305991
w 129 128 111 1
w 129 128 -111 0
w 129 -128 111 1
w 129 -128 -111 1
w 130 129 112 0
w 130 129 -112 1
w 130 -129 112 0
w 130 -129 -112 0
w 131 130 113 1
w 131 130 -113 1
w 131 -130 113 0
w 131 -130 -113 0
w 132 131 114 0
w 132 131 -114 0
w 132 -131 114 1
w 132 -131 -114 0
w 133 132 115 1
w 133 132 -115 1
w 133 -132 115 1
w 133 -132 -115 0
w 134 133 116 0
w 134 133 -116 1
w 134 -133 116 1
w 134 -133 -116 0
w 135 134 117 1
w 135 134 -117 0
w 135 -134 117 1
w 135 -134 -117 0
w 136 135 118 0
w 136 135 -118 0
w 136 -135 118 1
w 136 -135 -118 0
w 137 136 119 0
w 137 136 -119 1
w 137 -136 119 1
w 137 -136 -119 0
w 138 137 120 0.256458
w 138 137 -120 0.874875
w 138 -137 120 0.43585
w 138 -137 -120 0.534786
w 139 138 121 0.292614
w 139 138 -121 0.755346
w 139 -138 121 0.126986
w 139 -138 -121 0.536075
w 140 139 122 0.783844
w 140 139 -122 0.0423695
w 140 -139 122 0.0557919
w 140 -139 -122 0.746694
w 141 140 123 0
w 141 140 -123 1
w 141 -140 123 1
w 141 -140 -123 0
w 142 141 124 0.114568
w 142 141 -124 0.137574
w 142 -141 124 0.839067
w 142 -141 -124 0.741335
w 143 142 125 1
w 143 142 -125 0
w 143 -142 125 0
w 143 -142 -125 0
w 144 143 126 0
w 144 143 -126 0
w 144 -143 126 0
w 144 -143 -126 1
w 145 127 0.90661
w 145 -127 0.509277
w 146 145 128 1
w 146 145 -128 0
w 146 -145 128 0
w 146 -145 -128 0
w 147 146 129 1
w 147 146 -129 0
w 147 -146 129 0
w 147 -146 -129 1
w 148 147 130 0.584564
w 148 147 -130 0.645866
w 148 -147 130 0.809862
w 148 -147 -130 0.699131
w 149 148 131 0.648929
w 149 148 -131 0.440467
w 149 -148 131 0.380117
w 149 -148 -131 0.708963
w 150 149 132 0
w 150 149 -132 1
w 150 -149 132 1
w 150 -149 -132 0
w 151 150 133 1
w 151 150 -133 1
w 151 -150 133 1
w 151 -150 -133 0
w 152 151 134 0.617034
w 152 151 -134 0.279761
w 152 -151 134 0.822417
w 152 -151 -134 0.119779
w 153 152 135 1
w 153 152 -135 0
w 153 -152 135 0
w 153 -152 -135 0
w 154 153 136 0
w 154 153 -136 1
w 154 -153 136 0
w 154 -153 -136 0
w 155 154 137 0.439613
w 155 154 -137 0.342703
w 155 -154 137 0.654939
w 155 -154 -137 0.687007
w 156 155 138 0
w 156 155 -138 0
w 156 -155 138 1
w 156 -155 -138 0
w 157 156 139 0.556658
w 157 156 -139 0.628764
w 157 -156 139 0.708996
w 157 -156 -139 0.173692
w 158 157 140 0.531413
w 158 157 -140 0.293471
w 158 -157 140 0.00572531
w 158 -157 -140 0.441551
w 159 158 141 0.66706
w 159 158 -141 0.157002
w 159 -158 141 0.505066
w 159 -158 -141 0.154245
w 160 159 142 1
w 160 159 -142 1
w 160 -159 142 1
w 160 -159 -142 0
w 161 160 143 0
w 161 160 -143 1
w 161 -160 143 0
w 161 -160 -143 1
w 162 161 144 1
w 162 161 -144 0
w 162 -161 144 1
w 162 -161 -144 1
w 163 145 0
w 163 -145 1
w 164 163 146 0
w 164 163 -146 1
w 164 -163 146 0
w 164 -163 -146 1
w 165 164 147 0
w 165 164 -147 1
w 165 -164 147 1
w 165 -164 -147 1
w 166 165 148 0
w 166 165 -148 1
w 166 -165 148 0
w 166 -165 -148 0
w 167 166 149 0.950732
w 167 166 -149 0.890899
w 167 -166 149 0.221309
w 167 -166 -149 0.84651
w 168 167 150 0.273518
w 168 167 -150 0.429295
w 168 -167 150 0.482916
w 168 -167 -150 0.768073
w 169 168 151 0
w 169 168 -151 1
w 169 -168 151 1
w 169 -168 -151 0
w 170 169 152 0
w 170 169 -152 1
w 170 -169 152 0
w 170 -169 -152 1
w 171 170 153 1
w 171 170 -153 0
w 171 -170 153 1
w 171 -170 -153 0
w 172 171 154 1
w 172 171 -154 1
w 172 -171 154 0
w 172 -171 -154 1
w 173 172 155 1
w 173 172 -155 1
w 173 -172 155 1
w 173 -172 -155 0
w 174 173 156 1
w 174 173 -156 1
w 174 -173 156 0
w 174 -173 -156 0
w 175 174 157 0
w 175 174 -157 0
w 175 -174 157 0
w 175 -174 -157 1
w 176 175 158 1
w 176 175 -158 1
w 176 -175 158 0
w 176 -175 -158 1
w 177 176 159 0.277023
w 177 176 -159 0.295024
w 177 -176 159 0.797745
w 177 -176 -159 0.452321
w 178 177 160 0
w 178 177 -160 1
w 178 -177 160 0
w 178 -177 -160 0
w 179 178 161 1
w 179 178 -161 0
w 179 -178 161 0
w 179 -178 -161 1
w 180 179 162 0.535396
w 180 179 -162 0.781984
w 180 -179 162 0.559037
w 180 -179 -162 0.46935
w 181 163 0
w 181 -163 1
w 182 181 164 1
w 182 181 -164 0
w 182 -181 164 1
w 182 -181 -164 0
w 183 182 165 0
w 183 182 -165 1
w 183 -182 165 1
w 183 -182 -165 1
w 184 183 166 0.359349
w 184 183 -166 0.0620197
w 184 -183 166 0.227274
w 184 -183 -166 0.0249533
w 185 184 167 0.892444
w 185 184 -167 0.621028
w 185 -184 167 0.0794831
w 185 -184 -167 0.26503
w 186 185 168 0
w 186 185 -168 1
w 186 -185 168 0
w 186 -185 -168 0
w 187 186 169 0.00977212
w 187 186 -169 0.906041
w 187 -186 169 0.300512
w 187 -186 -169 0.220541
w 188 187 170 0.75894
w 188 187 -170 0.609671
w 188 -187 170 0.279692
w 188 -187 -170 0.269999
w 189 188 171 1
w 189 188 -171 0
w 189 -188 171 1
w 189 -188 -171 0
w 190 189 172 0.398209
w 190 189 -172 0.788426
w 190 -189 172 0.860729
w 190 -189 -172 0.625483
w 191 190 173 0.736902
w 191 190 -173 0.517927
w 191 -190 173 0.434407
w 191 -190 -173 0.816385
w 192 191 174 0.82608
w 192 191 -174 0.312375
w 192 -191 174 0.0787233
w 192 -191 -174 0.0538687
w 193 192 175 1
w 193 192 -175 0
w 193 -192 175 0
w 193 -192 -175 1
w 194 193 176 0
w 194 193 -176 0
w 194 -193 176 0
w 194 -193 -176 1
w 195 194 177 0
w 195 194 -177 0
w 195 -194 177 0
w 195 -194 -177 1
w 196 195 178 0
w 196 195 -178 0
w 196 -195 178 0
w 196 -195 -178 1
w 197 196 179 0
w 197 196 -179 1
w 197 -196 179 1
w 197 -196 -179 1
w 198 197 180 0.967011
w 198 197 -180 0.442408
w 198 -197 180 0.298871
w 198 -197 -180 0.0457338
w 199 181 0
w 199 -181 1
w 200 199 182 0.559918
w 200 199 -182 0.523669
w 200 -199 182 0.166016
w 200 -199 -182 0.8441
w 201 200 183 1
w 201 200 -183 1
w 201 -200 183 0
w 201 -200 -183 1
w 202 201 184 0.967587
w 202 201 -184 0.148459
w 202 -201 184 0.399565
w 202 -201 -184 0.547702
w 203 202 185 0
w 203 202 -185 0
w 203 -202 185 1
w 203 -202 -185 1
w 204 203 186 0
w 204 203 -186 0
w 204 -203 186 1
w 204 -203 -186 1
w 205 204 187 0
w 205 204 -187 1
w 205 -204 187 1
w 205 -204 -187 0
w 206 205 188 1
w 206 205 -188 0
w 206 -205 188 0
w 206 -205 -188 1
w 207 206 189 1
w 207 206 -189 0
w 207 -206 189 0
w 207 -206 -189 0
w 208 207 190 0.552278
w 208 207 -190 0.905942
w 208 -207 190 0.0832682
w 208 -207 -190 0.951844
w 209 208 191 0
w 209 208 -191 1
w 209 -208 191 0
w 209 -208 -191 1
w 210 209 192 0
w 210 209 -192 0
w 210 -209 192 1
w 210 -209 -192 0
w 211 210 193 1
w 211 210 -193 0
w 211 -210 193 0
w 211 -210 -193 0
w 212 211 194 0.770868
w 212 211 -194 0.608061
w 212 -211 194 0.205715
w 212 -211 -194 0.862412
w 213 212 195 0
w 213 212 -195 0
w 213 -212 195 1
w 213 -212 -195 0
w 214 213 196 0.527758
w 214 213 -196 0.610335
w 214 -213 196 0.828517
w 214 -213 -196 0.611027
w 215 214 197 1
w 215 214 -197 1
w 215 -214 197 1
w 215 -214 -197 0
w 216 215 198 0
w 216 215 -198 0
w 216 -215 198 1
w 216 -215 -198 1
w 217 199 0
w 217 -199 1
w 218 217 200 0
w 218 217 -200 1
w 218 -217 200 1
w 218 -217 -200 0
w 219 218 201 1
w 219 218 -201 1
w 219 -218 201 1
w 219 -218 -201 0
w 220 219 202 1
w 220 219 -202 0
w 220 -219 202 1
w 220 -219 -202 1
w 221 220 203 1
w 221 220 -203 0
w 221 -220 203 1
w 221 -220 -203 1
w 222 221 204 0
w 222 221 -204 0
w 222 -221 204 0
w 222 -221 -204 1
w 223 222 205 0
w 223 222 -205 0
w 223 -222 205 1
w 223 -222 -205 1
w 224 223 206 0
w 224 223 -206 1
w 224 -223 206 0
w 224 -223 -206 0
w 225 224 207 1
w 225 224 -207 1
w 225 -224 207 1
w 225 -224 -207 0
w 226 225 208 0
w 226 225 -208 0
w 226 -225 208 0
w 226 -225 -208 1
w 227 226 209 1
w 227 226 -209 1
w 227 -226 209 0
w 227 -226 -209 0
w 228 227 210 0
w 228 227 -210 1
w 228 -227 210 0
w 228 -227 -210 0
w 229 228 211 0.694589
w 229 228 -211 0.0839025
w 229 -228 211 0.385621
w 229 -228 -211 0.676744
w 230 229 212 0
w 230 229 -212 0
w 230 -229 212 1
w 230 -229 -212 0
w 231 230 213 0.537113
w 231 230 -213 0.626453
w 231 -230 213 0.00462842
w 231 -230 -213 0.832446
w 232 231 214 1
w 232 231 -214 0
w 232 -231 214 1
w 232 -231 -214 1
w 233 232 215 0.156974
w 233 232 -215 0.432515
w 233 -232 215 0.12296
w 233 -232 -215 0.506741
w 234 233 216 0
w 234 233 -216 1
w 234 -233 216 0
w 234 -233 -216 0
w 235 217 1
w 235 -217 0
w 236 235 218 1
w 236 235 -218 0
w 236 -235 218 0
w 236 -235 -218 1
w 237 236 219 0
w 237 236 -219 0
w 237 -236 219 0
w 237 -236 -219 1
w 238 237 220 1
w 238 237 -220 1
w 238 -237 220 0
w 238 -237 -220 1
w 239 238 221 0
w 239 238 -221 0
w 239 -238 221 0
w 239 -238 -221 1
w 240 239 222 1
w 240 239 -222 0
w 240 -239 222 1
w 240 -239 -222 1
w 241 240 223 0.932305
w 241 240 -223 0.642323
w 241 -240 223 0.0650903
w 241 -240 -223 0.136707
w 242 241 224 1
w 242 241 -224 0
w 242 -241 224 0
w 242 -241 -224 0
w 243 242 225 0
w 243 242 -225 0
w 243 -242 225 0
w 243 -242 -225 1
w 244 243 226 0.084864
w 244 243 -226 0.527235
w 244 -243 226 0.530082
w 244 -243 -226 0.436809
w 245 244 227 0
w 245 244 -227 1
w 245 -244 227 0
w 245 -244 -227 1
w 246 245 228 1
w 246 245 -228 1
w 246 -245 228 0
w 246 -245 -228 0
w 247 246 229 1
w 247 246 -229 0
w 247 -246 229 0
w 247 -246 -229 0
w 248 247 230 1
w 248 247 -230 0
w 248 -247 230 1
w 248 -247 -230 0
w 249 248 231 0.891971
w 249 248 -231 0.709061
w 249 -248 231 0.234991
w 249 -248 -231 0.0588406
w 250 249 232 1
w 250 249 -232 0
w 250 -249 232 0
w 250 -249 -232 1
w 251 250 233 0
w 251 250 -233 1
w 251 -250 233 1
w 251 -250 -233 0
w 252 251 234 0
w 252 251 -234 1
w 252 -251 234 1
w 252 -251 -234 0
w 253 235 0.925388
w 253 -235 0.477155
w 254 253 236 1
w 254 253 -236 1
w 254 -253 236 1
w 254 -253 -236 0
w 255 254 237 0
w 255 254 -237 0
w 255 -254 237 1
w 255 -254 -237 0
w 256 255 238 0
w 256 255 -238 1
w 256 -255 238 1
w 256 -255 -238 1
w 257 256 239 1
w 257 256 -239 0
w 257 -256 239 1
w 257 -256 -239 1
w 258 257 240 0
w 258 257 -240 1
w 258 -257 240 1
w 258 -257 -240 0
w 259 258 241 0
w 259 258 -241 0
w 259 -258 241 0
w 259 -258 -241 1
w 260 259 242 0
w 260 259 -242 0
w 260 -259 242 1
w 260 -259 -242 1
w 261 260 243 1
w 261 260 -243 1
w 261 -260 243 1
w 261 -260 -243 0
w 262 261 244 0
w 262 261 -244 0
w 262 -261 244 1
w 262 -261 -244 1
w 263 262 245 0.764341
w 263 262 -245 0.761659
w 263 -262 245 0.63872
w 263 -262 -245 0.670567
w 264 263 246 0.742368
w 264 263 -246 0.680054
w 264 -263 246 0.171951
w 264 -263 -246 0.533257
w 265 264 247 0.552382
w 265 264 -247 0.182047
w 265 -264 247 0.832604
w 265 -264 -247 0.714432
w 266 265 248 0.308362
w 266 265 -248 0.023959
w 266 -265 248 0.38837
w 266 -265 -248 0.0304825
w 267 266 249 0.528314
w 267 266 -249 0.494904
w 267 -266 249 0.0596662
w 267 -266 -249 0.457312
w 268 267 250 1
w 268 267 -250 1
w 268 -267 250 1
w 268 -267 -250 0
w 269 268 251 1
w 269 268 -251 0
w 269 -268 251 1
w 269 -268 -251 0
w 270 269 252 0
w 270 269 -252 0
w 270 -269 252 1
w 270 -269 -252 0
w 271 253 1
w 271 -253 0
w 272 271 254 1
w 272 271 -254 0
w 272 -271 254 1
w 272 -271 -254 1
w 273 272 255 0.154009
w 273 272 -255 0.822523
w 273 -272 255 0.875325
w 273 -272 -255 0.0802234
w 274 273 256 0
w 274 273 -256 0
w 274 -273 256 0
w 274 -273 -256 1
w 275 274 257 1
w 275 274 -257 1
w 275 -274 257 1
w 275 -274 -257 0
w 276 275 258 1
w 276 275 -258 1
w 276 -275 258 0
w 276 -275 -258 1
w 277 276 259 0
w 277 276 -259 1
w 277 -276 259 1
w 277 -276 -259 0
w 278 277 260 0
w 278 277 -260 1
w 278 -277 260 0
w 278 -277 -260 1
w 279 278 261 0.875237
w 279 278 -261 0.868466
w 279 -278 261 0.762028
w 279 -278 -261 0.750562
w 280 279 262 0.112864
w 280 279 -262 0.12079
w 280 -279 262 0.0885785
w 280 -279 -262 0.921012
w 281 280 263 0
w 281 280 -263 1
w 281 -280 263 0
w 281 -280 -263 1
w 282 281 264 0
w 282 281 -264 1
w 282 -281 264 1
w 282 -281 -264 1
w 283 282 265 0
w 283 282 -265 1
w 283 -282 265 0
w 283 -282 -265 0
w 284 283 266 0
w 284 283 -266 1
w 284 -283 266 0
w 284 -283 -266 1
w 285 284 267 0.59593
w 285 284 -267 0.642118
w 285 -284 267 0.54563
w 285 -284 -267 0.346492
w 286 285 268 1
w 286 285 -268 1
w 286 -285 268 0
w 286 -285 -268 1
w 287 286 269 1
w 287 286 -269 0
w 287 -286 269 1
w 287 -286 -269 0
w 288 287 270 0
w 288 287 -270 1
w 288 -287 270 1
w 288 -287 -270 0
w 289 271 0.885722
w 289 -271 0.726467
w 290 289 272 1
w 290 289 -272 0
w 290 -289 272 1
w 290 -289 -272 1
w 291 290 273 0.479891
w 291 290 -273 0.193358
w 291 -290 273 0.692912
w 291 -290 -273 0.0758209
w 292 291 274 0.238542
w 292 291 -274 0.422313
w 292 -291 274 0.426283
w 292 -291 -274 0.897036
w 293 292 275 0.105668
w 293 292 -275 0.476542
w 293 -292 275 0.451932
w 293 -292 -275 0.329807
w 294 293 276 0
w 294 293 -276 1
w 294 -293 276 1
w 294 -293 -276 1
w 295 294 277 0.828631
w 295 294 -277 0.926975
w 295 -294 277 0.648466
w 295 -294 -277 0.714353
w 296 295 278 0
w 296 295 -278 1
w 296 -295 278 1
w 296 -295 -278 1
w 297 296 279 0
w 297 296 -279 0
w 297 -296 279 1
w 297 -296 -279 0
w 298 297 280 1
w 298 297 -280 1
w 298 -297 280 1
w 298 -297 -280 0
w 299 298 281 1
w 299 298 -281 0
w 299 -298 281 0
w 299 -298 -281 0
w 300 299 282 1
w 300 299 -282 1
w 300 -299 282 0
w 300 -299 -282 1
w 301 300 283 1
w 301 300 -283 1
w 301 -300 283 0
w 301 -300 -283 1
w 302 301 284 0.836733
w 302 301 -284 0.469387
w 302 -301 284 0.483465
w 302 -301 -284 0.313295
w 303 302 285 0.111428
w 303 302 -285 0.269748
w 303 -302 285 0.651885
w 303 -302 -285 0.432303
w 304 303 286 1
w 304 303 -286 0
w 304 -303 286 0
w 304 -303 -286 1
w 305 304 287 1
w 305 304 -287 1
w 305 -304 287 1
w 305 -304 -287 0
w 306 305 288 1
w 306 305 -288 1
w 306 -305 288 1
w 306 -305 -288 0
w 307 289 1
w 307 -289 0
w 308 307 290 0
w 308 307 -290 0
w 308 -307 290 1
w 308 -307 -290 0
w 309 308 291 0
w 309 308 -291 1
w 309 -308 291 0
w 309 -308 -291 0
w 310 309 292 1
w 310 309 -292 1
w 310 -309 292 0
w 310 -309 -292 0
w 311 310 293 0
w 311 310 -293 0
w 311 -310 293 0
w 311 -310 -293 1
w 312 311 294 1
w 312 311 -294 1
w 312 -311 294 1
w 312 -311 -294 0
w 313 312 295 1
w 313 312 -295 0
w 313 -312 295 1
w 313 -312 -295 0
w 314 313 296 1
w 314 313 -296 0
w 314 -313 296 1
w 314 -313 -296 1
w 315 314 297 1
w 315 314 -297 0
w 315 -314 297 1
w 315 -314 -297 1
w 316 315 298 0
w 316 315 -298 0
w 316 -315 298 1
w 316 -315 -298 0
w 317 316 299 1
w 317 316 -299 0
w 317 -316 299 1
w 317 -316 -299 1
w 318 317 300 0
w 318 317 -300 1
w 318 -317 300 1
w 318 -317 -300 0
w 319 318 301 0
w 319 318 -301 1
w 319 -318 301 0
w 319 -318 -301 1
w 320 319 302 0
w 320 319 -302 1
w 320 -319 302 0
w 320 -319 -302 1
w 321 320 303 1
w 321 320 -303 0
w 321 -320 303 1
w 321 -320 -303 0
w 322 321 304 0
w 322 321 -304 0
w 322 -321 304 1
w 322 -321 -304 1
w 323 322 305 0.661582
w 323 322 -305 0.181958
w 323 -322 305 0.588075
w 323 -322 -305 0.368666
w 324 323 306 1
w 324 323 -306 0
w 324 -323 306 1
w 324 -323 -306 1